100 100 100
50
82 82 52
93 83 75
73 1 98
67 97 49
71 94 74
88 91 23
94 100 92
82 72 70
68 83 96
30 46 37
80 92 23
72 12 83
67 77 71
70 49 78
24 89 83
88 73 24
92 79 37
53 76 93
89 60 69
94 59 73
81 75 23
76 54 90
91 61 50
50 47 22
51 54 54
85 98 86
72 72 27
87 15 89
24 69 91
68 51 86
91 93 92
84 79 76
46 84 77
89 65 52
73 77 97
15 43 33
100 99 56
18 67 81
79 50 56
96 69 54
72 85 66
68 87 72
19 79 81
98 54 67
95 3 69
97 82 61
69 82 95
64 94 97
91 88 10
89 2 84
